min: c;

c = 3.6396192661511 * u1_t7_h4 + 3.80177498176828 * u1_t7_h5 + 4.13340023043245 * u1_t5_h6 + 4.13340023043245 * u1_t7_h6 + 3.97670870816345 * u1_t5_h7 + 3.97670870816345 * u1_t7_h7 + 3.97670870816345 * u1_t9_h7 + 5.12629299347359 * u1_t5_h8 + 5.12629299347359 * u1_t7_h8 + 5.12629299347359 * u1_t9_h8 + 5.12629299347359 * u1_t10_h8 + 4.92563739912571 * u1_t5_h9 + 4.92563739912571 * u1_t7_h9 + 4.92563739912571 * u1_t9_h9 + 4.92563739912571 * u1_t10_h9 + 5.11246397153876 * u1_t5_h10 + 5.11246397153876 * u1_t7_h10 + 5.11246397153876 * u1_t9_h10 + 5.11246397153876 * u1_t10_h10 + 3.66291035820634 * u1_t5_h11 + 3.66291035820634 * u1_t9_h11 + 3.66291035820634 * u1_t10_h11 + 5.88302669084894 * u1_t4_h12 + 5.88302669084894 * u1_t5_h12 + 5.88302669084894 * u1_t8_h12 + 5.88302669084894 * u1_t9_h12 + 5.88302669084894 * u1_t10_h12 + 4.26147481273498 * u1_t4_h13 + 4.26147481273498 * u1_t8_h13 + 4.26147481273498 * u1_t9_h13 + 4.26147481273498 * u1_t10_h13 + 5.62176809051602 * u1_t4_h14 + 5.62176809051602 * u1_t8_h14 + 5.62176809051602 * u1_t9_h14 + 5.62176809051602 * u1_t10_h14 + 6.56028023699798 * u1_t4_h15 + 6.56028023699798 * u1_t8_h15 + 5.38933177245032 * u1_t4_h16 + 5.38933177245032 * u1_t8_h16 + 6.66371931868126 * u1_t4_h17 + 6.66371931868126 * u1_t8_h17 + 6.63763275771512 * u1_t2_h18 + 6.63763275771512 * u1_t4_h18 + 6.63763275771512 * u1_t6_h18 + 6.63763275771512 * u1_t8_h18 + 6.04250545630417 * u1_t2_h19 + 6.04250545630417 * u1_t3_h19 + 6.04250545630417 * u1_t4_h19 + 6.04250545630417 * u1_t6_h19 + 5.8553027673655 * u1_t1_h20 + 5.8553027673655 * u1_t2_h20 + 5.8553027673655 * u1_t3_h20 + 5.8553027673655 * u1_t4_h20 + 5.8553027673655 * u1_t6_h20 + 4.88448131645274 * u1_t1_h21 + 4.88448131645274 * u1_t2_h21 + 4.88448131645274 * u1_t3_h21 + 5.68982900029671 * u1_t1_h22 + 5.68982900029671 * u1_t2_h22 + 5.91935983429892 * u1_t1_h23 + 5.91935983429892 * u1_t2_h23;
0 <= u1_t1_h20 <= 1;
0 <= u1_t1_h21 <= 1;
0 <= u1_t1_h22 <= 1;
0 <= u1_t1_h23 <= 1;
u1_t1_h20 + u1_t1_h21 + u1_t1_h22 + u1_t1_h23 = 1;
0 <= u1_t2_h18 <= 1;
0 <= u1_t2_h19 <= 1;
0 <= u1_t2_h20 <= 1;
0 <= u1_t2_h21 <= 1;
0 <= u1_t2_h22 <= 1;
0 <= u1_t2_h23 <= 1;
u1_t2_h18 + u1_t2_h19 + u1_t2_h20 + u1_t2_h21 + u1_t2_h22 + u1_t2_h23 = 2;
0 <= u1_t3_h19 <= 1;
0 <= u1_t3_h20 <= 1;
0 <= u1_t3_h21 <= 1;
u1_t3_h19 + u1_t3_h20 + u1_t3_h21 = 1;
0 <= u1_t4_h12 <= 1;
0 <= u1_t4_h13 <= 1;
0 <= u1_t4_h14 <= 1;
0 <= u1_t4_h15 <= 1;
0 <= u1_t4_h16 <= 1;
0 <= u1_t4_h17 <= 1;
0 <= u1_t4_h18 <= 1;
0 <= u1_t4_h19 <= 1;
0 <= u1_t4_h20 <= 1;
u1_t4_h12 + u1_t4_h13 + u1_t4_h14 + u1_t4_h15 + u1_t4_h16 + u1_t4_h17 + u1_t4_h18 + u1_t4_h19 + u1_t4_h20 = 3;
0 <= u1_t5_h6 <= 1;
0 <= u1_t5_h7 <= 1;
0 <= u1_t5_h8 <= 1;
0 <= u1_t5_h9 <= 1;
0 <= u1_t5_h10 <= 1;
0 <= u1_t5_h11 <= 1;
0 <= u1_t5_h12 <= 1;
u1_t5_h6 + u1_t5_h7 + u1_t5_h8 + u1_t5_h9 + u1_t5_h10 + u1_t5_h11 + u1_t5_h12 = 3;
0 <= u1_t6_h18 <= 1;
0 <= u1_t6_h19 <= 1;
0 <= u1_t6_h20 <= 1;
u1_t6_h18 + u1_t6_h19 + u1_t6_h20 = 2;
0 <= u1_t7_h4 <= 1;
0 <= u1_t7_h5 <= 1;
0 <= u1_t7_h6 <= 1;
0 <= u1_t7_h7 <= 1;
0 <= u1_t7_h8 <= 1;
0 <= u1_t7_h9 <= 1;
0 <= u1_t7_h10 <= 1;
u1_t7_h4 + u1_t7_h5 + u1_t7_h6 + u1_t7_h7 + u1_t7_h8 + u1_t7_h9 + u1_t7_h10 = 2;
0 <= u1_t8_h12 <= 1;
0 <= u1_t8_h13 <= 1;
0 <= u1_t8_h14 <= 1;
0 <= u1_t8_h15 <= 1;
0 <= u1_t8_h16 <= 1;
0 <= u1_t8_h17 <= 1;
0 <= u1_t8_h18 <= 1;
u1_t8_h12 + u1_t8_h13 + u1_t8_h14 + u1_t8_h15 + u1_t8_h16 + u1_t8_h17 + u1_t8_h18 = 2;
0 <= u1_t9_h7 <= 1;
0 <= u1_t9_h8 <= 1;
0 <= u1_t9_h9 <= 1;
0 <= u1_t9_h10 <= 1;
0 <= u1_t9_h11 <= 1;
0 <= u1_t9_h12 <= 1;
0 <= u1_t9_h13 <= 1;
0 <= u1_t9_h14 <= 1;
u1_t9_h7 + u1_t9_h8 + u1_t9_h9 + u1_t9_h10 + u1_t9_h11 + u1_t9_h12 + u1_t9_h13 + u1_t9_h14 = 3;
0 <= u1_t10_h8 <= 1;
0 <= u1_t10_h9 <= 1;
0 <= u1_t10_h10 <= 1;
0 <= u1_t10_h11 <= 1;
0 <= u1_t10_h12 <= 1;
0 <= u1_t10_h13 <= 1;
0 <= u1_t10_h14 <= 1;
u1_t10_h8 + u1_t10_h9 + u1_t10_h10 + u1_t10_h11 + u1_t10_h12 + u1_t10_h13 + u1_t10_h14 = 3;
